50
84 21 90 168 126 42 27 81 189 36 72 189 63 126 105 90 126 90 81 126 126 42 189 9 27 105 210 105 147 36 36 210 21 72 63 42 9 81 72 21 90 45 63 63 105 36 84 21 168 63 
484 121 1090 968 726 242 327 981 1089 436 872 1089 763 726 605 1090 726 1090 981 726 726 242 1089 109 327 605 1210 605 847 436 436 1210 121 872 363 242 109 981 872 121 1090 545 763 363 605 436 484 121 968 363 
2125
